(set-logic QF_S)
(declare-fun var0 () String)
(assert (RegexIn var0 (RegexConcat (RegexStar (RegexUnion (Str2Reg "000") (Str2Reg "1"))) (RegexConcat (RegexPlus (RegexPlus (Str2Reg "222"))) (RegexConcat (RegexStar (RegexPlus (Str2Reg "333"))) (RegexConcat (RegexUnion (RegexPlus (Str2Reg "44")) (RegexPlus (Str2Reg "555"))) (RegexConcat (RegexUnion (RegexStar (Str2Reg "6")) (RegexStar (Str2Reg "77"))) (RegexConcat (RegexUnion (RegexStar (Str2Reg "8")) (RegexStar (Str2Reg "99"))) (RegexConcat (RegexUnion (RegexStar (Str2Reg "aa")) (RegexStar (Str2Reg "b"))) (RegexConcat (RegexStar (RegexUnion (Str2Reg "ccc") (Str2Reg "dd"))) (RegexConcat (RegexStar (RegexPlus (Str2Reg "ee"))) (RegexConcat (RegexPlus (RegexUnion (Str2Reg "ff") (Str2Reg "ggg"))) (RegexConcat (RegexUnion (RegexStar (Str2Reg "hh")) (RegexStar (Str2Reg "iii"))) (RegexConcat (RegexStar (RegexUnion (Str2Reg "jj") (Str2Reg "kk"))) (RegexConcat (RegexStar (RegexUnion (Str2Reg "l") (Str2Reg "mm"))) (RegexConcat (RegexPlus (RegexUnion (Str2Reg "n") (Str2Reg "o"))) (RegexConcat (RegexPlus (RegexPlus (Str2Reg "pp"))) (RegexPlus (RegexPlus (Str2Reg "qqq"))))))))))))))))))))
(assert (not (RegexIn var0 (RegexConcat (RegexStar (RegexPlus (Str2Reg "0"))) (RegexConcat (RegexPlus (RegexUnion (Str2Reg "11") (Str2Reg "2"))) (RegexConcat (RegexPlus (RegexStar (Str2Reg "333"))) (RegexConcat (RegexStar (RegexStar (Str2Reg "44"))) (RegexConcat (RegexUnion (RegexStar (Str2Reg "555")) (RegexStar (Str2Reg "6"))) (RegexConcat (RegexPlus (RegexPlus (Str2Reg "77"))) (RegexConcat (RegexUnion (RegexPlus (Str2Reg "8")) (RegexPlus (Str2Reg "9"))) (RegexConcat (RegexStar (RegexStar (Str2Reg "aa"))) (RegexConcat (RegexUnion (RegexUnion (Str2Reg "bb") (Str2Reg "cc")) (RegexUnion (Str2Reg "dd") (Str2Reg "eee"))) (RegexConcat (RegexUnion (RegexStar (Str2Reg "ff")) (RegexStar (Str2Reg "g"))) (RegexConcat (RegexUnion (RegexStar (Str2Reg "hh")) (RegexStar (Str2Reg "i"))) (RegexConcat (RegexUnion (RegexStar (Str2Reg "jjj")) (RegexStar (Str2Reg "k"))) (RegexConcat (RegexStar (RegexUnion (Str2Reg "lll") (Str2Reg "mm"))) (RegexConcat (RegexPlus (RegexUnion (Str2Reg "n") (Str2Reg "ooo"))) (RegexConcat (RegexPlus (RegexStar (Str2Reg "pp"))) (RegexStar (RegexStar (Str2Reg "qqq")))))))))))))))))))))
(check-sat)